NAME : 5cities
COMMENT : 5city sample  (from 101 cities problem of Christofides/Eilon)
TYPE : TSP
DIMENSION : 5
EDGE_WEIGHT_TYPE : CEIL_2D
NODE_COORD_SECTION
1 41 49
2 35 17
3 55 45
4 55 20
5 15 30
EOF
